NAME: map5_72
TYPE: TSP
COMMENT: autogenerated using a wonderful map creator
DIMENSION: 96
EDGE_WEIGHT_TYPE: EUC_2D
NODE_COORD_SECTION
1 4.0 2.0
2 3.0 2.0
3 4.0 5.0
4 3.0 5.0
5 4.0 8.0
6 3.0 8.0
7 79.0 2.0
8 80.0 2.0
9 79.0 5.0
10 80.0 5.0
11 79.0 8.0
12 80.0 8.0
13 2.0 2.0
14 1.0 2.0
15 81.0 5.0
16 82.0 5.0
17 2.0 8.0
18 1.0 8.0
19 81.0 2.0
20 82.0 2.0
21 2.0 5.0
22 1.0 5.0
23 81.0 8.0
24 82.0 8.0
25 79.0 3.0
26 80.0 3.0
27 79.0 6.0
28 80.0 6.0
29 79.0 9.0
30 80.0 9.0
31 4.0 3.0
32 3.0 3.0
33 4.0 6.0
34 3.0 6.0
35 4.0 9.0
36 3.0 9.0
37 81.0 3.0
38 82.0 3.0
39 2.0 6.0
40 1.0 6.0
41 81.0 9.0
42 82.0 9.0
43 2.0 3.0
44 1.0 3.0
45 81.0 6.0
46 82.0 6.0
47 2.0 9.0
48 1.0 9.0
49 20.0 8.0
50 55.0 5.0
51 58.0 4.0
52 36.0 4.0
53 47.0 7.0
54 33.0 2.0
55 13.0 2.0
56 57.0 2.0
57 68.0 8.0
58 13.0 5.0
59 66.0 8.0
60 48.0 2.0
61 68.0 5.0
62 24.0 8.0
63 48.0 5.0
64 40.0 2.0
65 39.0 8.0
66 15.0 8.0
67 72.0 2.0
68 20.0 2.0
69 73.0 2.0
70 36.0 6.0
71 14.0 3.0
72 28.0 2.0
73 17.0 2.0
74 18.0 8.0
75 59.0 5.0
76 17.0 5.0
77 50.0 5.0
78 28.0 5.0
79 70.0 8.0
80 17.0 8.0
81 30.0 5.0
82 41.0 5.0
83 32.0 2.0
84 76.0 2.0
85 19.0 8.0
86 10.0 5.0
87 43.0 5.0
88 49.0 8.0
89 76.0 5.0
90 32.0 5.0
91 25.0 6.0
92 21.0 2.0
93 54.0 2.0
94 21.0 5.0
95 23.0 2.0
96 12.0 2.0
97 21.0 8.0
98 54.0 8.0
99 56.0 5.0
100 47.0 2.0
101 14.0 2.0
102 12.0 8.0
103 34.0 8.0
104 36.0 5.0
105 47.0 5.0
106 45.0 8.0
107 27.0 2.0
108 47.0 8.0
109 27.0 5.0
110 60.0 8.0
111 51.0 5.0
112 7.0 8.0
113 29.0 2.0
114 62.0 2.0
115 73.0 8.0
116 7.0 5.0
117 40.0 5.0
118 62.0 5.0
119 53.0 8.0
120 29.0 8.0
START_DEPOT_SECTION
1
2
3
4
5
6
7
8
9
10
11
12
13
14
15
16
17
18
19
20
21
22
23
24
-1
END_DEPOT_SECTION
25
26
27
28
29
30
31
32
33
34
35
36
37
38
39
40
41
42
43
44
45
46
47
48
-1
EOF
